
  12    4
  10   10   10   10

   0   0   0   0   0   2 2 3 
   9  10  10  10  10   2 5 4 
  10  10  10  10  10   2 8 6 
   3  10  10  10  10   1 6 
   2  10  10  10  10   1 6 
   1  10  10  10  10   2 11 7 
   8  10  10  10  10   2 10 9 
  10  10  10  10  10   2 10 9 
   1  10  10  10  10   1 12
  10  10  10  10  10   1 12
   8  10  10  10  10   1 12
   0   0   0   0   0   0 
